9
2147483647 95 39 42 69 98 42 51 30 
95 2147483647 54 80 34 21 24 46 99 
39 54 2147483647 23 25 52 73 3 14 
42 80 23 2147483647 89 29 58 7 73 
69 34 25 89 2147483647 95 55 32 16 
98 21 52 29 95 2147483647 24 77 48 
42 24 73 58 55 24 2147483647 35 86 
51 46 3 7 32 77 35 2147483647 48 
30 99 14 73 16 48 86 48 2147483647 
